20 380
0 1 40.7
0 2 18.7
0 3 31.0
0 4 35.5
0 5 58.5
0 6 47.8
0 7 58.0
0 8 12.1
0 9 39.0
0 10 49.8
0 11 52.6
0 12 25.2
0 13 32.8
0 14 34.2
0 15 26.3
0 16 45.4
0 17 65.4
0 18 62.1
0 19 22.8
1 2 24.5
1 3 71.2
1 4 66.7
1 5 41.9
1 6 25.5
1 7 27.9
1 8 51.9
1 9 15.6
1 10 60.7
1 11 53.1
1 12 63.7
1 13 73.1
1 14 69.5
1 15 63.2
1 16 46.1
1 17 43.1
1 18 30.0
1 19 63.2
2 3 47.4
2 4 51.9
2 5 54.5
2 6 40.1
2 7 47.8
2 8 30.7
2 9 29.0
2 10 57.9
2 11 56.0
2 12 43.8
2 13 49.3
2 14 52.0
2 15 44.5
2 16 48.2
2 17 59.2
2 18 51.1
2 19 41.3
3 4 38.7
3 5 86.2
3 6 77.8
3 7 88.5
3 8 22.6
3 9 69.8
3 10 66.7
3 11 74.8
3 12 21.5
3 13 1.8
3 14 31.1
3 15 25.7
3 16 69.0
3 17 94.0
3 18 92.6
3 19 14.0
4 5 60.9
4 6 59.5
4 7 71.2
4 8 26.3
4 9 57.0
4 10 31.1
4 11 42.8
4 12 17.5
4 13 39.2
4 14 8.6
4 15 13.4
4 16 39.9
4 17 69.9
4 18 75.6
4 19 25.7
5 6 16.3
5 7 19.9
5 8 63.6
5 9 27.4
5 10 36.2
5 11 22.3
5 12 69.0
5 13 87.7
5 14 68.0
5 15 66.1
5 16 21.4
5 17 9.1
5 18 22.7
5 19 73.4
6 7 11.7
6 8 55.4
6 9 11.5
6 10 42.4
6 11 31.2
6 12 63.5
6 13 79.4
6 14 65.1
6 15 61.3
6 16 26.0
6 17 19.1
6 18 16.1
6 19 66.2
7 8 66.3
7 9 19.2
7 10 52.5
7 11 40.0
7 12 74.9
7 13 90.2
7 14 76.8
7 15 72.9
7 16 36.1
7 17 16.9
7 18 4.5
7 19 77.3
8 9 48.1
8 10 47.4
8 11 53.4
8 12 13.3
8 13 24.2
8 14 23.1
8 15 15.0
8 16 47.1
8 17 71.4
8 18 70.6
8 19 11.4
9 10 46.2
9 11 37.6
9 12 57.8
9 13 71.5
9 14 61.3
9 15 56.3
9 16 30.9
9 17 30.6
9 18 23.1
9 19 59.3
10 11 14.2
10 12 45.6
10 13 67.7
10 14 39.6
10 15 41.6
10 16 16.5
10 17 45.1
10 18 56.5
10 19 52.8
11 12 54.8
11 13 76.0
11 14 50.9
11 15 51.1
11 16 7.8
11 17 31.0
11 18 43.7
11 19 60.9
12 13 22.2
12 14 11.2
12 15 4.2
12 16 49.9
12 17 77.4
12 18 79.3
12 19 8.2
13 14 31.4
13 15 26.4
13 16 70.3
13 17 95.5
13 18 94.4
13 19 15.0
14 15 8.1
14 16 47.4
14 17 76.8
14 18 81.2
14 19 19.2
15 16 46.5
15 17 74.6
15 18 77.3
15 19 12.3
16 17 30.5
16 18 40.2
16 19 55.4
17 18 17.9
17 19 81.5
18 19 81.7
